
Gurobi 7.0.2 (linux64) logging started Sun May 29 11:59:23 2022


Gurobi 7.0.2 (linux64) logging started Sun May 29 12:00:03 2022


Gurobi 7.0.2 (linux64) logging started Sun May 29 12:00:12 2022


Gurobi 7.0.2 (linux64) logging started Sun May 29 12:00:18 2022


Gurobi 7.0.2 (linux64) logging started Sun May 29 12:00:21 2022

